55414
45, 52, 2, 14, 9, 12, 18, 30, 4, 47, 54, 34, 53, 23, 17, 48, 19, 13, 41, 32, 8, 44, 38, 24, 50, 20, 35, 5, 37, 7, 51, 40, 43, 3, 6, 28, 55, 26, 49, 21, 29, 10, 22, 16, 39, 36, 46, 15, 25, 31, 1, 27, 33, 42, 11
